
******************************************************************************
This program contains Ipopt, a library for large-scale nonlinear optimization.
 Ipopt is released as open source code under the Eclipse Public License (EPL).
         For more information visit http://projects.coin-or.org/Ipopt
******************************************************************************

This is Ipopt version 3.12.6, running with linear solver ma57.

Number of nonzeros in equality constraint Jacobian...:        0
Number of nonzeros in inequality constraint Jacobian.:        0
Number of nonzeros in Lagrangian Hessian.............:    24990

Total number of variables............................:     5000
                     variables with only lower bounds:        0
                variables with lower and upper bounds:        0
                     variables with only upper bounds:        0
Total number of equality constraints.................:        0
Total number of inequality constraints...............:        0
        inequality constraints with only lower bounds:        0
   inequality constraints with lower and upper bounds:        0
        inequality constraints with only upper bounds:        0

iter    objective    inf_pr   inf_du lg(mu)  ||d||  lg(rg) alpha_du alpha_pr  ls
   0  1.1290960e+06 0.00e+00 1.00e+02  -1.0 0.00e+00    -  0.00e+00 0.00e+00   0
   1  2.2385279e+05 0.00e+00 2.96e+01  -1.0 3.35e-01    -  1.00e+00 1.00e+00f  1
   2  5.3816751e+04 0.00e+00 8.78e+00  -1.0 2.37e-01    -  1.00e+00 1.00e+00f  1
   3  2.4949739e+04 0.00e+00 2.60e+00  -1.0 1.86e-01    -  1.00e+00 1.00e+00f  1
   4  2.0489717e+04 0.00e+00 6.73e-01  -1.0 1.55e-01    -  1.00e+00 1.00e+00f  1
   5  2.0014077e+04 0.00e+00 6.66e-02  -1.7 1.06e-01    -  1.00e+00 1.00e+00f  1
   6  2.0006274e+04 0.00e+00 1.14e-03  -2.5 7.69e-02    -  1.00e+00 1.00e+00f  1
   7  2.0006257e+04 0.00e+00 3.42e-06  -5.7 5.97e-02    -  1.00e+00 1.00e+00f  1
   8  2.0006257e+04 0.00e+00 2.02e-07  -8.6 2.18e-02    -  1.00e+00 1.00e+00f  1
   9  2.0006257e+04 0.00e+00 1.89e-10  -8.6 6.70e-04    -  1.00e+00 1.00e+00f  1
iter    objective    inf_pr   inf_du lg(mu)  ||d||  lg(rg) alpha_du alpha_pr  ls
  10  2.0006257e+04 0.00e+00 1.47e-17  -9.2 1.33e-07    -  1.00e+00 1.00e+00f  1

Number of Iterations....: 10

                                   (scaled)                 (unscaled)
Objective...............:   1.3348183132128908e+00    2.0006256878434808e+04
Dual infeasibility......:   1.4696306917909731e-17    2.2026824808563106e-13
Constraint violation....:   0.0000000000000000e+00    0.0000000000000000e+00
Complementarity.........:   0.0000000000000000e+00    0.0000000000000000e+00
Overall NLP error.......:   1.4696306917909731e-17    2.2026824808563106e-13


Number of objective function evaluations             = 11
Number of objective gradient evaluations             = 11
Number of equality constraint evaluations            = 0
Number of inequality constraint evaluations          = 0
Number of equality constraint Jacobian evaluations   = 0
Number of inequality constraint Jacobian evaluations = 0
Number of Lagrangian Hessian evaluations             = 10
Total CPU secs in IPOPT (w/o function evaluations)   =      0.023
Total CPU secs in NLP function evaluations           =      0.040

EXIT: Optimal Solution Found.
Note: The following floating-point exceptions are signalling: IEEE_UNDERFLOW_FLAG IEEE_DENORMAL

 ** SUBROUTINE CUTEST_csetup: Warning. The problem has no general constraints. 
 ** Other tools may be preferable ** 

************************ CUTEst statistics ************************


 Package used            :  IPOPT
 Problem                 :  BDQRTIC   
 # variables             =            5000
 # constraints           =               0
 # objective functions   =        0.2300000E+02
 # objective gradients   =        0.1200000E+02
 # objective Hessians    =        0.1100000E+02
 # Hessian-vector prdct  =        0.0000000E+00
 # constraints functions =        0.0000000E+00
 # constraints gradients =        0.0000000E+00
 # constraints Hessians  =        0.0000000E+00
 Exit code               =               0
 Final f                 =   0.2000626E+05
 Set up time             =            0.34 seconds
 Solve time              =            0.06 seconds


******************************************************************

System Time =       0.0630000010 s.
